40 200

47 33
22 23
25 39
57 15
38 29
34 17
52 27
96 9
73 8
48 25
31 20
87 38
49 20
94 8
79 3
49 24
50 6
38 49
36 1
99 24
24 4
29 1
89 48
46 45
36 16
56 15
96 27
72 11
30 41
11 25
32 40
48 9
96 45
68 29
97 29
45 45
61 48
62 49
50 32
26 3
